(set-info :smt-lib-version 2.6)
(set-logic UF)
(set-info :source |Benchmarks from the paper: "Extending Sledgehammer with SMT Solvers" by Jasmin Blanchette, Sascha Bohme, and Lawrence C. Paulson, CADE 2011.  Translated to SMT2 by Andrew Reynolds and Morgan Deters.|)
(set-info :category "industrial")
(set-info :status unsat)
(declare-sort S1 0)
(declare-sort S2 0)
(declare-sort S3 0)
(declare-sort S4 0)
(declare-sort S5 0)
(declare-sort S6 0)
(declare-sort S7 0)
(declare-sort S8 0)
(declare-sort S9 0)
(declare-sort S10 0)
(declare-sort S11 0)
(declare-sort S12 0)
(declare-sort S13 0)
(declare-sort S14 0)
(declare-sort S15 0)
(declare-sort S16 0)
(declare-sort S17 0)
(declare-sort S18 0)
(declare-sort S19 0)
(declare-sort S20 0)
(declare-sort S21 0)
(declare-sort S22 0)
(declare-sort S23 0)
(declare-sort S24 0)
(declare-sort S25 0)
(declare-sort S26 0)
(declare-sort S27 0)
(declare-sort S28 0)
(declare-sort S29 0)
(declare-sort S30 0)
(declare-sort S31 0)
(declare-sort S32 0)
(declare-sort S33 0)
(declare-sort S34 0)
(declare-sort S35 0)
(declare-sort S36 0)
(declare-sort S37 0)
(declare-sort S38 0)
(declare-sort S39 0)
(declare-sort S40 0)
(declare-sort S41 0)
(declare-sort S42 0)
(declare-sort S43 0)
(declare-sort S44 0)
(declare-sort S45 0)
(declare-sort S46 0)
(declare-sort S47 0)
(declare-sort S48 0)
(declare-sort S49 0)
(declare-sort S50 0)
(declare-sort S51 0)
(declare-sort S52 0)
(declare-sort S53 0)
(declare-sort S54 0)
(declare-sort S55 0)
(declare-sort S56 0)
(declare-sort S57 0)
(declare-sort S58 0)
(declare-sort S59 0)
(declare-sort S60 0)
(declare-sort S61 0)
(declare-sort S62 0)
(declare-sort S63 0)
(declare-sort S64 0)
(declare-sort S65 0)
(declare-sort S66 0)
(declare-sort S67 0)
(declare-sort S68 0)
(declare-fun f1 () S1)
(declare-fun f2 () S1)
(declare-fun f3 (S3 S2) S1)
(declare-fun f4 (S4 S2) S3)
(declare-fun f5 () S4)
(declare-fun f6 (S7 S5) S1)
(declare-fun f7 (S8 S6) S7)
(declare-fun f8 (S9 S5) S8)
(declare-fun f9 () S9)
(declare-fun f10 (S5 S10) S3)
(declare-fun f11 (S11 S12) S3)
(declare-fun f12 (S13 S2) S11)
(declare-fun f13 (S6) S13)
(declare-fun f14 () S12)
(declare-fun f15 (S12) S9)
(declare-fun f16 (S14 S15) S1)
(declare-fun f17 (S9) S14)
(declare-fun f18 (S16 S5) S15)
(declare-fun f19 (S17 S6) S16)
(declare-fun f20 (S18 S5) S17)
(declare-fun f21 () S18)
(declare-fun f22 () S5)
(declare-fun f23 () S6)
(declare-fun f24 () S5)
(declare-fun f25 (S19 S4) S20)
(declare-fun f26 (S21 S6) S19)
(declare-fun f27 (S22 S4) S21)
(declare-fun f28 () S22)
(declare-fun f29 (S12) S14)
(declare-fun f30 (S15 S14) S1)
(declare-fun f31 (S24 S20) S12)
(declare-fun f32 (S25 S23) S24)
(declare-fun f33 () S25)
(declare-fun f34 () S12)
(declare-fun f35 (S27 S15) S12)
(declare-fun f36 (S28 S26) S27)
(declare-fun f37 () S28)
(declare-fun f38 () S24)
(declare-fun f39 () S27)
(declare-fun f40 () S6)
(declare-fun f41 (S14 S14) S1)
(declare-fun f42 () S29)
(declare-fun f43 () S1)
(declare-fun f44 (S30 S6) S12)
(declare-fun f45 () S30)
(declare-fun f46 (S31 S6) S6)
(declare-fun f47 (S32 S6) S31)
(declare-fun f48 () S32)
(declare-fun f49 () S30)
(declare-fun f50 (S33 S3) S32)
(declare-fun f51 () S33)
(declare-fun f52 (S34 S3) S31)
(declare-fun f53 () S34)
(declare-fun f54 (S36 S23) S6)
(declare-fun f55 (S37 S35) S36)
(declare-fun f56 () S37)
(declare-fun f57 (S39 S38) S36)
(declare-fun f58 (S40 S35) S39)
(declare-fun f59 () S40)
(declare-fun f60 (S41 S38) S6)
(declare-fun f61 () S41)
(declare-fun f62 (S42 S12) S2)
(declare-fun f63 (S43 S35) S42)
(declare-fun f64 (S44 S2) S43)
(declare-fun f65 () S44)
(declare-fun f66 (S23 S2) S12)
(declare-fun f67 (S6) S1)
(declare-fun f68 (S46 S23) S31)
(declare-fun f69 (S47 S45) S46)
(declare-fun f70 () S47)
(declare-fun f71 (S6) S4)
(declare-fun f72 (S48 S45) S35)
(declare-fun f73 () S48)
(declare-fun f74 (S49 S45) S12)
(declare-fun f75 (S50 S2) S49)
(declare-fun f76 () S50)
(declare-fun f77 (S51 S38) S52)
(declare-fun f78 () S51)
(declare-fun f79 () S52)
(declare-fun f80 (S53 S6) S20)
(declare-fun f81 () S53)
(declare-fun f82 (S54 S35) S12)
(declare-fun f83 () S54)
(declare-fun f84 (S55 S52) S6)
(declare-fun f85 () S55)
(declare-fun f86 () S54)
(declare-fun f87 (S56 S12) S12)
(declare-fun f88 () S56)
(declare-fun f89 (S58 S57) S35)
(declare-fun f90 () S58)
(declare-fun f91 (S59 S12) S1)
(declare-fun f92 (S60 S12) S56)
(declare-fun f93 () S60)
(declare-fun f94 (S61 S29) S29)
(declare-fun f95 (S62 S29) S61)
(declare-fun f96 () S62)
(declare-fun f97 () S56)
(declare-fun f98 (S63 S30) S64)
(declare-fun f99 () S63)
(declare-fun f100 (S64 S52) S12)
(declare-fun f101 () S56)
(declare-fun f102 () S64)
(declare-fun f103 (S65 S1) S12)
(declare-fun f104 () S65)
(declare-fun f105 (S66 S6) S52)
(declare-fun f106 () S66)
(declare-fun f107 (S67 S49) S2)
(declare-fun f108 (S68 S2) S67)
(declare-fun f109 () S68)
(declare-fun f110 () S49)
(declare-fun f111 () S45)
(declare-fun f112 () S45)
(declare-fun f113 () S1)
(assert (not (= f1 f2)))
(assert (forall ((?v0 S2) (?v1 S2)) (= (= (f3 (f4 f5 ?v0) ?v1) f1) (= ?v0 ?v1))))
(assert (forall ((?v0 S5) (?v1 S6) (?v2 S5)) (= (= (f6 (f7 (f8 f9 ?v0) ?v1) ?v2) f1) (forall ((?v3 S10) (?v4 S2)) (=> (= (f3 (f10 ?v0 ?v3) ?v4) f1) (forall ((?v5 S2)) (=> (= (f3 (f11 (f12 (f13 ?v1) ?v4) f14) ?v5) f1) (= (f3 (f10 ?v2 ?v3) ?v5) f1))))))))
(assert (forall ((?v0 S12) (?v1 S5) (?v2 S6) (?v3 S5)) (= (= (f6 (f7 (f8 (f15 ?v0) ?v1) ?v2) ?v3) f1) (forall ((?v4 S10) (?v5 S2)) (=> (= (f3 (f10 ?v1 ?v4) ?v5) f1) (forall ((?v6 S2)) (=> (= (f3 (f11 (f12 (f13 ?v2) ?v5) ?v0) ?v6) f1) (= (f3 (f10 ?v3 ?v4) ?v6) f1))))))))
(assert (not (= (= (f16 (f17 f9) (f18 (f19 (f20 f21 f22) f23) f24)) f1) (forall ((?v0 S10) (?v1 S2)) (=> (= (f3 (f10 f22 ?v0) ?v1) f1) (forall ((?v2 S2)) (=> (= (f3 (f11 (f12 (f13 f23) ?v1) f14) ?v2) f1) (= (f3 (f10 f24 ?v0) ?v2) f1))))))))
(assert (forall ((?v0 S9) (?v1 S5) (?v2 S6) (?v3 S5)) (= (= (f16 (f17 ?v0) (f18 (f19 (f20 f21 ?v1) ?v2) ?v3)) f1) (= (f6 (f7 (f8 ?v0 ?v1) ?v2) ?v3) f1))))
(assert (forall ((?v0 S4) (?v1 S6) (?v2 S4) (?v3 S4) (?v4 S6) (?v5 S4)) (= (= (f25 (f26 (f27 f28 ?v0) ?v1) ?v2) (f25 (f26 (f27 f28 ?v3) ?v4) ?v5)) (and (= ?v0 ?v3) (and (= ?v1 ?v4) (= ?v2 ?v5))))))
(assert (forall ((?v0 S5) (?v1 S6) (?v2 S5) (?v3 S5) (?v4 S6) (?v5 S5)) (= (= (f18 (f19 (f20 f21 ?v0) ?v1) ?v2) (f18 (f19 (f20 f21 ?v3) ?v4) ?v5)) (and (= ?v0 ?v3) (and (= ?v1 ?v4) (= ?v2 ?v5))))))
(assert (forall ((?v0 S12) (?v1 S15)) (= (= (f16 (f29 ?v0) ?v1) f1) (= (f16 (f17 (f15 ?v0)) ?v1) f1))))
(assert (forall ((?v0 S20)) (=> (forall ((?v1 S4) (?v2 S6) (?v3 S4)) (=> (= ?v0 (f25 (f26 (f27 f28 ?v1) ?v2) ?v3)) false)) false)))
(assert (forall ((?v0 S15)) (=> (forall ((?v1 S5) (?v2 S6) (?v3 S5)) (=> (= ?v0 (f18 (f19 (f20 f21 ?v1) ?v2) ?v3)) false)) false)))
(assert (forall ((?v0 S6) (?v1 S2) (?v2 S12) (?v3 S2) (?v4 S6) (?v5 S2) (?v6 S12) (?v7 S2)) (=> (= (f3 (f11 (f12 (f13 ?v0) ?v1) ?v2) ?v3) f1) (=> (= (f3 (f11 (f12 (f13 ?v4) ?v5) ?v6) ?v7) f1) (exists ((?v8 S12)) (and (= (f3 (f11 (f12 (f13 ?v0) ?v1) ?v8) ?v3) f1) (= (f3 (f11 (f12 (f13 ?v4) ?v5) ?v8) ?v7) f1)))))))
(assert (forall ((?v0 S14) (?v1 S14) (?v2 S14)) (=> (forall ((?v3 S15)) (=> (= (f16 ?v0 ?v3) f1) (=> (= (f16 ?v1 ?v3) f1) (= (f16 ?v2 ?v3) f1)))) (=> (forall ((?v3 S15)) (= (f16 ?v1 ?v3) f1)) (forall ((?v3 S15)) (=> (= (f30 ?v3 ?v0) f1) (= (f16 ?v2 ?v3) f1)))))))
(assert (forall ((?v0 S23) (?v1 S4) (?v2 S6) (?v3 S4)) (= (f31 (f32 f33 ?v0) (f25 (f26 (f27 f28 ?v1) ?v2) ?v3)) f34)))
(assert (forall ((?v0 S26) (?v1 S5) (?v2 S6) (?v3 S5)) (= (f35 (f36 f37 ?v0) (f18 (f19 (f20 f21 ?v1) ?v2) ?v3)) f34)))
(assert (forall ((?v0 S4) (?v1 S6) (?v2 S4)) (= (f31 f38 (f25 (f26 (f27 f28 ?v0) ?v1) ?v2)) f34)))
(assert (forall ((?v0 S5) (?v1 S6) (?v2 S5)) (= (f35 f39 (f18 (f19 (f20 f21 ?v0) ?v1) ?v2)) f34)))
(assert (forall ((?v0 S2) (?v1 S12)) (= (f3 (f11 (f12 (f13 f40) ?v0) ?v1) ?v0) f1)))
(assert (forall ((?v0 S2) (?v1 S12) (?v2 S2)) (=> (= (f3 (f11 (f12 (f13 f40) ?v0) ?v1) ?v2) f1) (=> (=> (= ?v2 ?v0) false) false))))
(assert (forall ((?v0 S14) (?v1 S14)) (= (= (f41 ?v0 ?v1) f1) (forall ((?v2 S12)) (=> (forall ((?v3 S15)) (=> (= (f30 ?v3 ?v0) f1) (= (f16 (f29 ?v2) ?v3) f1))) (forall ((?v3 S15)) (=> (= (f30 ?v3 ?v1) f1) (= (f16 (f29 ?v2) ?v3) f1))))))))
(assert (forall ((?v0 S12)) (= (= f34 ?v0) (= ?v0 f34))))
(assert (forall ((?v0 S29)) (= (= f42 ?v0) (= ?v0 f42))))
(assert (= (= f43 f1) false))
(assert (= (f44 f45 f40) f34))
(assert (forall ((?v0 S6) (?v1 S2) (?v2 S12) (?v3 S2) (?v4 S6) (?v5 S2)) (=> (= (f3 (f11 (f12 (f13 ?v0) ?v1) ?v2) ?v3) f1) (=> (= (f3 (f11 (f12 (f13 ?v4) ?v3) ?v2) ?v5) f1) (= (f3 (f11 (f12 (f13 (f46 (f47 f48 ?v0) ?v4)) ?v1) ?v2) ?v5) f1)))))
(assert (= (f44 f49 f40) f34))
(assert (forall ((?v0 S3) (?v1 S6) (?v2 S6) (?v3 S2) (?v4 S12) (?v5 S2)) (let ((?v_0 (= (f3 ?v0 ?v3) f1))) (=> (= (f3 (f11 (f12 (f13 (f46 (f47 (f50 f51 ?v0) ?v1) ?v2)) ?v3) ?v4) ?v5) f1) (=> (=> ?v_0 (=> (= (f3 (f11 (f12 (f13 ?v1) ?v3) ?v4) ?v5) f1) false)) (=> (=> (not ?v_0) (=> (= (f3 (f11 (f12 (f13 ?v2) ?v3) ?v4) ?v5) f1) false)) false))))))
(assert (forall ((?v0 S3) (?v1 S2) (?v2 S6) (?v3 S12) (?v4 S2) (?v5 S6)) (=> (= (f3 ?v0 ?v1) f1) (=> (= (f3 (f11 (f12 (f13 ?v2) ?v1) ?v3) ?v4) f1) (= (f3 (f11 (f12 (f13 (f46 (f47 (f50 f51 ?v0) ?v2) ?v5)) ?v1) ?v3) ?v4) f1)))))
(assert (forall ((?v0 S3) (?v1 S2) (?v2 S6) (?v3 S12) (?v4 S2) (?v5 S6)) (=> (not (= (f3 ?v0 ?v1) f1)) (=> (= (f3 (f11 (f12 (f13 ?v2) ?v1) ?v3) ?v4) f1) (= (f3 (f11 (f12 (f13 (f46 (f47 (f50 f51 ?v0) ?v5) ?v2)) ?v1) ?v3) ?v4) f1)))))
(assert (forall ((?v0 S3) (?v1 S2) (?v2 S6) (?v3 S12) (?v4 S2) (?v5 S2)) (let ((?v_0 (f13 (f46 (f52 f53 ?v0) ?v2)))) (=> (= (f3 ?v0 ?v1) f1) (=> (= (f3 (f11 (f12 (f13 ?v2) ?v1) ?v3) ?v4) f1) (=> (= (f3 (f11 (f12 ?v_0 ?v4) ?v3) ?v5) f1) (= (f3 (f11 (f12 ?v_0 ?v1) ?v3) ?v5) f1)))))))
(assert (forall ((?v0 S3) (?v1 S2) (?v2 S6) (?v3 S12)) (=> (not (= (f3 ?v0 ?v1) f1)) (= (f3 (f11 (f12 (f13 (f46 (f52 f53 ?v0) ?v2)) ?v1) ?v3) ?v1) f1))))
(assert (forall ((?v0 S3) (?v1 S6) (?v2 S6) (?v3 S3) (?v4 S6) (?v5 S6)) (= (= (f46 (f47 (f50 f51 ?v0) ?v1) ?v2) (f46 (f47 (f50 f51 ?v3) ?v4) ?v5)) (and (= ?v0 ?v3) (and (= ?v1 ?v4) (= ?v2 ?v5))))))
(assert (forall ((?v0 S3) (?v1 S6) (?v2 S3) (?v3 S6)) (= (= (f46 (f52 f53 ?v0) ?v1) (f46 (f52 f53 ?v2) ?v3)) (and (= ?v0 ?v2) (= ?v1 ?v3)))))
(assert (forall ((?v0 S6) (?v1 S6) (?v2 S6) (?v3 S6)) (= (= (f46 (f47 f48 ?v0) ?v1) (f46 (f47 f48 ?v2) ?v3)) (and (= ?v0 ?v2) (= ?v1 ?v3)))))
(assert (forall ((?v0 S3) (?v1 S6) (?v2 S6) (?v3 S6) (?v4 S6)) (not (= (f46 (f47 (f50 f51 ?v0) ?v1) ?v2) (f46 (f47 f48 ?v3) ?v4)))))
(assert (forall ((?v0 S3) (?v1 S6) (?v2 S6) (?v3 S3) (?v4 S6)) (not (= (f46 (f47 (f50 f51 ?v0) ?v1) ?v2) (f46 (f52 f53 ?v3) ?v4)))))
(assert (forall ((?v0 S3) (?v1 S6) (?v2 S3) (?v3 S6) (?v4 S6)) (not (= (f46 (f52 f53 ?v0) ?v1) (f46 (f47 (f50 f51 ?v2) ?v3) ?v4)))))
(assert (forall ((?v0 S6) (?v1 S6) (?v2 S3) (?v3 S6) (?v4 S6)) (not (= (f46 (f47 f48 ?v0) ?v1) (f46 (f47 (f50 f51 ?v2) ?v3) ?v4)))))
(assert (forall ((?v0 S3) (?v1 S6) (?v2 S6) (?v3 S6)) (not (= (f46 (f52 f53 ?v0) ?v1) (f46 (f47 f48 ?v2) ?v3)))))
(assert (forall ((?v0 S6) (?v1 S6) (?v2 S3) (?v3 S6)) (not (= (f46 (f47 f48 ?v0) ?v1) (f46 (f52 f53 ?v2) ?v3)))))
(assert (forall ((?v0 S3) (?v1 S6)) (not (= (f46 (f52 f53 ?v0) ?v1) f40))))
(assert (forall ((?v0 S3) (?v1 S6)) (not (= f40 (f46 (f52 f53 ?v0) ?v1)))))
(assert (forall ((?v0 S3) (?v1 S6) (?v2 S6)) (not (= (f46 (f47 (f50 f51 ?v0) ?v1) ?v2) f40))))
(assert (forall ((?v0 S3) (?v1 S6) (?v2 S6)) (not (= f40 (f46 (f47 (f50 f51 ?v0) ?v1) ?v2)))))
(assert (forall ((?v0 S6) (?v1 S6)) (not (= (f46 (f47 f48 ?v0) ?v1) f40))))
(assert (forall ((?v0 S6) (?v1 S6)) (not (= f40 (f46 (f47 f48 ?v0) ?v1)))))
(assert (forall ((?v0 S6) (?v1 S6) (?v2 S2) (?v3 S12) (?v4 S2)) (=> (= (f3 (f11 (f12 (f13 (f46 (f47 f48 ?v0) ?v1)) ?v2) ?v3) ?v4) f1) (=> (forall ((?v5 S2)) (=> (= (f3 (f11 (f12 (f13 ?v0) ?v2) ?v3) ?v5) f1) (=> (= (f3 (f11 (f12 (f13 ?v1) ?v5) ?v3) ?v4) f1) false))) false))))
(assert (forall ((?v0 S3) (?v1 S6) (?v2 S2) (?v3 S12) (?v4 S2)) (=> (= (f3 (f11 (f12 (f13 (f46 (f52 f53 ?v0) ?v1)) ?v2) ?v3) ?v4) f1) (=> (=> (= ?v4 ?v2) (=> (not (= (f3 ?v0 ?v2) f1)) false)) (=> (forall ((?v5 S2)) (=> (= (f3 ?v0 ?v2) f1) (=> (= (f3 (f11 (f12 (f13 ?v1) ?v2) ?v3) ?v5) f1) (=> (= (f3 (f11 (f12 (f13 (f46 (f52 f53 ?v0) ?v1)) ?v5) ?v3) ?v4) f1) false)))) false)))))
(assert (forall ((?v0 S35) (?v1 S23)) (= (f44 f45 (f54 (f55 f56 ?v0) ?v1)) f34)))
(assert (forall ((?v0 S35) (?v1 S23)) (= (f44 f49 (f54 (f55 f56 ?v0) ?v1)) f34)))
(assert (forall ((?v0 S35) (?v1 S38) (?v2 S23)) (= (f44 f45 (f54 (f57 (f58 f59 ?v0) ?v1) ?v2)) f34)))
(assert (forall ((?v0 S35) (?v1 S38) (?v2 S23)) (= (f44 f49 (f54 (f57 (f58 f59 ?v0) ?v1) ?v2)) f34)))
(assert (forall ((?v0 S38)) (= (f44 f45 (f60 f61 ?v0)) f34)))
(assert (forall ((?v0 S38)) (= (f44 f49 (f60 f61 ?v0)) f34)))
(assert (forall ((?v0 S35) (?v1 S38) (?v2 S23) (?v3 S35) (?v4 S38) (?v5 S23)) (= (= (f54 (f57 (f58 f59 ?v0) ?v1) ?v2) (f54 (f57 (f58 f59 ?v3) ?v4) ?v5)) (and (= ?v0 ?v3) (and (= ?v1 ?v4) (= ?v2 ?v5))))))
(assert (forall ((?v0 S35) (?v1 S23) (?v2 S35) (?v3 S23)) (= (= (f54 (f55 f56 ?v0) ?v1) (f54 (f55 f56 ?v2) ?v3)) (and (= ?v0 ?v2) (= ?v1 ?v3)))))
(assert (forall ((?v0 S38) (?v1 S38)) (= (= (f60 f61 ?v0) (f60 f61 ?v1)) (= ?v0 ?v1))))
(assert (forall ((?v0 S35) (?v1 S38) (?v2 S23) (?v3 S35) (?v4 S23)) (not (= (f54 (f57 (f58 f59 ?v0) ?v1) ?v2) (f54 (f55 f56 ?v3) ?v4)))))
(assert (forall ((?v0 S35) (?v1 S38) (?v2 S23) (?v3 S38)) (not (= (f54 (f57 (f58 f59 ?v0) ?v1) ?v2) (f60 f61 ?v3)))))
(assert (forall ((?v0 S35) (?v1 S23) (?v2 S35) (?v3 S38) (?v4 S23)) (not (= (f54 (f55 f56 ?v0) ?v1) (f54 (f57 (f58 f59 ?v2) ?v3) ?v4)))))
(assert (forall ((?v0 S35) (?v1 S23) (?v2 S38)) (not (= (f54 (f55 f56 ?v0) ?v1) (f60 f61 ?v2)))))
(assert (forall ((?v0 S38) (?v1 S35) (?v2 S38) (?v3 S23)) (not (= (f60 f61 ?v0) (f54 (f57 (f58 f59 ?v1) ?v2) ?v3)))))
(assert (forall ((?v0 S38) (?v1 S35) (?v2 S23)) (not (= (f60 f61 ?v0) (f54 (f55 f56 ?v1) ?v2)))))
(assert (forall ((?v0 S38) (?v1 S3) (?v2 S6)) (not (= (f60 f61 ?v0) (f46 (f52 f53 ?v1) ?v2)))))
(assert (forall ((?v0 S3) (?v1 S6) (?v2 S38)) (not (= (f46 (f52 f53 ?v0) ?v1) (f60 f61 ?v2)))))
(assert (forall ((?v0 S38) (?v1 S3) (?v2 S6) (?v3 S6)) (not (= (f60 f61 ?v0) (f46 (f47 (f50 f51 ?v1) ?v2) ?v3)))))
(assert (forall ((?v0 S3) (?v1 S6) (?v2 S6) (?v3 S38)) (not (= (f46 (f47 (f50 f51 ?v0) ?v1) ?v2) (f60 f61 ?v3)))))
(assert (forall ((?v0 S38) (?v1 S6) (?v2 S6)) (not (= (f60 f61 ?v0) (f46 (f47 f48 ?v1) ?v2)))))
(assert (forall ((?v0 S6) (?v1 S6) (?v2 S38)) (not (= (f46 (f47 f48 ?v0) ?v1) (f60 f61 ?v2)))))
(assert (forall ((?v0 S38)) (not (= f40 (f60 f61 ?v0)))))
(assert (forall ((?v0 S38)) (not (= (f60 f61 ?v0) f40))))
(assert (forall ((?v0 S35) (?v1 S23) (?v2 S3) (?v3 S6)) (not (= (f54 (f55 f56 ?v0) ?v1) (f46 (f52 f53 ?v2) ?v3)))))
(assert (forall ((?v0 S3) (?v1 S6) (?v2 S35) (?v3 S23)) (not (= (f46 (f52 f53 ?v0) ?v1) (f54 (f55 f56 ?v2) ?v3)))))
(assert (forall ((?v0 S3) (?v1 S6) (?v2 S35) (?v3 S38) (?v4 S23)) (not (= (f46 (f52 f53 ?v0) ?v1) (f54 (f57 (f58 f59 ?v2) ?v3) ?v4)))))
(assert (forall ((?v0 S35) (?v1 S38) (?v2 S23) (?v3 S3) (?v4 S6)) (not (= (f54 (f57 (f58 f59 ?v0) ?v1) ?v2) (f46 (f52 f53 ?v3) ?v4)))))
(assert (forall ((?v0 S35) (?v1 S23) (?v2 S3) (?v3 S6) (?v4 S6)) (not (= (f54 (f55 f56 ?v0) ?v1) (f46 (f47 (f50 f51 ?v2) ?v3) ?v4)))))
(assert (forall ((?v0 S3) (?v1 S6) (?v2 S6) (?v3 S35) (?v4 S23)) (not (= (f46 (f47 (f50 f51 ?v0) ?v1) ?v2) (f54 (f55 f56 ?v3) ?v4)))))
(assert (forall ((?v0 S35) (?v1 S38) (?v2 S23) (?v3 S3) (?v4 S6) (?v5 S6)) (not (= (f54 (f57 (f58 f59 ?v0) ?v1) ?v2) (f46 (f47 (f50 f51 ?v3) ?v4) ?v5)))))
(assert (forall ((?v0 S3) (?v1 S6) (?v2 S6) (?v3 S35) (?v4 S38) (?v5 S23)) (not (= (f46 (f47 (f50 f51 ?v0) ?v1) ?v2) (f54 (f57 (f58 f59 ?v3) ?v4) ?v5)))))
(assert (forall ((?v0 S35) (?v1 S23) (?v2 S6) (?v3 S6)) (not (= (f54 (f55 f56 ?v0) ?v1) (f46 (f47 f48 ?v2) ?v3)))))
(assert (forall ((?v0 S6) (?v1 S6) (?v2 S35) (?v3 S23)) (not (= (f46 (f47 f48 ?v0) ?v1) (f54 (f55 f56 ?v2) ?v3)))))
(assert (forall ((?v0 S6) (?v1 S6) (?v2 S35) (?v3 S38) (?v4 S23)) (not (= (f46 (f47 f48 ?v0) ?v1) (f54 (f57 (f58 f59 ?v2) ?v3) ?v4)))))
(assert (forall ((?v0 S35) (?v1 S38) (?v2 S23) (?v3 S6) (?v4 S6)) (not (= (f54 (f57 (f58 f59 ?v0) ?v1) ?v2) (f46 (f47 f48 ?v3) ?v4)))))
(assert (forall ((?v0 S35) (?v1 S23)) (not (= f40 (f54 (f55 f56 ?v0) ?v1)))))
(assert (forall ((?v0 S35) (?v1 S38) (?v2 S23)) (not (= f40 (f54 (f57 (f58 f59 ?v0) ?v1) ?v2)))))
(assert (forall ((?v0 S35) (?v1 S23)) (not (= (f54 (f55 f56 ?v0) ?v1) f40))))
(assert (forall ((?v0 S35) (?v1 S38) (?v2 S23)) (not (= (f54 (f57 (f58 f59 ?v0) ?v1) ?v2) f40))))
(assert (forall ((?v0 S35) (?v1 S23) (?v2 S2) (?v3 S12) (?v4 S2)) (=> (= (f3 (f11 (f12 (f13 (f54 (f55 f56 ?v0) ?v1)) ?v2) ?v3) ?v4) f1) (=> (=> (= ?v4 (f62 (f63 (f64 f65 ?v2) ?v0) (f66 ?v1 ?v2))) false) false))))
(assert (forall ((?v0 S35) (?v1 S23) (?v2 S2) (?v3 S12)) (= (f3 (f11 (f12 (f13 (f54 (f55 f56 ?v0) ?v1)) ?v2) ?v3) (f62 (f63 (f64 f65 ?v2) ?v0) (f66 ?v1 ?v2))) f1)))
(assert (forall ((?v0 S35) (?v1 S38) (?v2 S23)) (=> (= (f67 (f54 (f57 (f58 f59 ?v0) ?v1) ?v2)) f1) (=> (=> (= (f67 (f60 f61 ?v1)) f1) false) false))))
(assert (forall ((?v0 S38) (?v1 S35) (?v2 S23)) (=> (= (f67 (f60 f61 ?v0)) f1) (= (f67 (f54 (f57 (f58 f59 ?v1) ?v0) ?v2)) f1))))
(assert (forall ((?v0 S6)) (=> (=> (= ?v0 f40) false) (=> (forall ((?v1 S35) (?v2 S23)) (=> (= ?v0 (f54 (f55 f56 ?v1) ?v2)) false)) (=> (forall ((?v1 S45) (?v2 S23) (?v3 S6)) (=> (= ?v0 (f46 (f68 (f69 f70 ?v1) ?v2) ?v3)) false)) (=> (forall ((?v1 S6) (?v2 S6)) (=> (= ?v0 (f46 (f47 f48 ?v1) ?v2)) false)) (=> (forall ((?v1 S3) (?v2 S6) (?v3 S6)) (=> (= ?v0 (f46 (f47 (f50 f51 ?v1) ?v2) ?v3)) false)) (=> (forall ((?v1 S3) (?v2 S6)) (=> (= ?v0 (f46 (f52 f53 ?v1) ?v2)) false)) (=> (forall ((?v1 S38)) (=> (= ?v0 (f60 f61 ?v1)) false)) (=> (forall ((?v1 S35) (?v2 S38) (?v3 S23)) (=> (= ?v0 (f54 (f57 (f58 f59 ?v1) ?v2) ?v3)) false)) false))))))))))
(assert (=> (= (f67 f40) f1) (=> false false)))
(assert (forall ((?v0 S35) (?v1 S23)) (=> (= (f67 (f54 (f55 f56 ?v0) ?v1)) f1) (=> false false))))
(assert (forall ((?v0 S3) (?v1 S6)) (=> (= (f67 (f46 (f52 f53 ?v0) ?v1)) f1) (=> (=> (= (f67 ?v1) f1) false) false))))
(assert (forall ((?v0 S3) (?v1 S6) (?v2 S6)) (=> (= (f67 (f46 (f47 (f50 f51 ?v0) ?v1) ?v2)) f1) (=> (=> (= (f67 ?v1) f1) (=> (= (f67 ?v2) f1) false)) false))))
(assert (forall ((?v0 S45) (?v1 S23) (?v2 S6)) (=> (= (f67 (f46 (f68 (f69 f70 ?v0) ?v1) ?v2)) f1) (=> (=> (= (f67 ?v2) f1) false) false))))
(assert (forall ((?v0 S6) (?v1 S6)) (=> (= (f67 (f46 (f47 f48 ?v0) ?v1)) f1) (=> (=> (= (f67 ?v0) f1) (=> (= (f67 ?v1) f1) false)) false))))
(assert (forall ((?v0 S45) (?v1 S23) (?v2 S6) (?v3 S45) (?v4 S23) (?v5 S6)) (= (= (f46 (f68 (f69 f70 ?v0) ?v1) ?v2) (f46 (f68 (f69 f70 ?v3) ?v4) ?v5)) (and (= ?v0 ?v3) (and (= ?v1 ?v4) (= ?v2 ?v5))))))
(assert (forall ((?v0 S6) (?v1 S45) (?v2 S23)) (=> (= (f67 ?v0) f1) (= (f67 (f46 (f68 (f69 f70 ?v1) ?v2) ?v0)) f1))))
(assert (forall ((?v0 S38) (?v1 S45) (?v2 S23) (?v3 S6)) (not (= (f60 f61 ?v0) (f46 (f68 (f69 f70 ?v1) ?v2) ?v3)))))
(assert (forall ((?v0 S45) (?v1 S23) (?v2 S6) (?v3 S38)) (not (= (f46 (f68 (f69 f70 ?v0) ?v1) ?v2) (f60 f61 ?v3)))))
(assert (forall ((?v0 S45) (?v1 S23) (?v2 S6) (?v3 S3) (?v4 S6)) (not (= (f46 (f68 (f69 f70 ?v0) ?v1) ?v2) (f46 (f52 f53 ?v3) ?v4)))))
(assert (forall ((?v0 S3) (?v1 S6) (?v2 S45) (?v3 S23) (?v4 S6)) (not (= (f46 (f52 f53 ?v0) ?v1) (f46 (f68 (f69 f70 ?v2) ?v3) ?v4)))))
(assert (forall ((?v0 S45) (?v1 S23) (?v2 S6) (?v3 S3) (?v4 S6) (?v5 S6)) (not (= (f46 (f68 (f69 f70 ?v0) ?v1) ?v2) (f46 (f47 (f50 f51 ?v3) ?v4) ?v5)))))
(assert (forall ((?v0 S3) (?v1 S6) (?v2 S6) (?v3 S45) (?v4 S23) (?v5 S6)) (not (= (f46 (f47 (f50 f51 ?v0) ?v1) ?v2) (f46 (f68 (f69 f70 ?v3) ?v4) ?v5)))))
(assert (forall ((?v0 S6) (?v1 S3)) (=> (= (f67 ?v0) f1) (= (f67 (f46 (f52 f53 ?v1) ?v0)) f1))))
(assert (forall ((?v0 S45) (?v1 S23) (?v2 S6) (?v3 S6) (?v4 S6)) (not (= (f46 (f68 (f69 f70 ?v0) ?v1) ?v2) (f46 (f47 f48 ?v3) ?v4)))))
(assert (forall ((?v0 S6) (?v1 S6) (?v2 S45) (?v3 S23) (?v4 S6)) (not (= (f46 (f47 f48 ?v0) ?v1) (f46 (f68 (f69 f70 ?v2) ?v3) ?v4)))))
(assert (forall ((?v0 S35) (?v1 S23) (?v2 S45) (?v3 S23) (?v4 S6)) (not (= (f54 (f55 f56 ?v0) ?v1) (f46 (f68 (f69 f70 ?v2) ?v3) ?v4)))))
(assert (forall ((?v0 S45) (?v1 S23) (?v2 S6) (?v3 S35) (?v4 S23)) (not (= (f46 (f68 (f69 f70 ?v0) ?v1) ?v2) (f54 (f55 f56 ?v3) ?v4)))))
(assert (forall ((?v0 S35) (?v1 S38) (?v2 S23) (?v3 S45) (?v4 S23) (?v5 S6)) (not (= (f54 (f57 (f58 f59 ?v0) ?v1) ?v2) (f46 (f68 (f69 f70 ?v3) ?v4) ?v5)))))
(assert (forall ((?v0 S45) (?v1 S23) (?v2 S6) (?v3 S35) (?v4 S38) (?v5 S23)) (not (= (f46 (f68 (f69 f70 ?v0) ?v1) ?v2) (f54 (f57 (f58 f59 ?v3) ?v4) ?v5)))))
(assert (forall ((?v0 S6) (?v1 S6) (?v2 S3)) (=> (= (f67 ?v0) f1) (=> (= (f67 ?v1) f1) (= (f67 (f46 (f47 (f50 f51 ?v2) ?v0) ?v1)) f1)))))
(assert (forall ((?v0 S45) (?v1 S23) (?v2 S6)) (not (= (f46 (f68 (f69 f70 ?v0) ?v1) ?v2) f40))))
(assert (forall ((?v0 S45) (?v1 S23) (?v2 S6)) (not (= f40 (f46 (f68 (f69 f70 ?v0) ?v1) ?v2)))))
(assert (forall ((?v0 S6) (?v1 S6)) (=> (= (f67 ?v0) f1) (=> (= (f67 ?v1) f1) (= (f67 (f46 (f47 f48 ?v0) ?v1)) f1)))))
(assert (forall ((?v0 S35) (?v1 S23)) (= (f67 (f54 (f55 f56 ?v0) ?v1)) f1)))
(assert (= (f67 f40) f1))
(assert (forall ((?v0 S35) (?v1 S23) (?v2 S2)) (= (f3 (f4 (f71 (f54 (f55 f56 ?v0) ?v1)) ?v2) (f62 (f63 (f64 f65 ?v2) ?v0) (f66 ?v1 ?v2))) f1)))
(assert (forall ((?v0 S35) (?v1 S23) (?v2 S2) (?v3 S2)) (=> (= (f3 (f4 (f71 (f54 (f55 f56 ?v0) ?v1)) ?v2) ?v3) f1) (=> (=> (= ?v3 (f62 (f63 (f64 f65 ?v2) ?v0) (f66 ?v1 ?v2))) false) false))))
(assert (forall ((?v0 S6) (?v1 S2) (?v2 S45) (?v3 S23) (?v4 S12) (?v5 S2)) (let ((?v_0 (f72 f73 ?v2))) (=> (= (f3 (f11 (f12 (f13 ?v0) (f62 (f63 (f64 f65 ?v1) ?v_0) (f66 ?v3 ?v1))) ?v4) ?v5) f1) (= (f3 (f11 (f12 (f13 (f46 (f68 (f69 f70 ?v2) ?v3) ?v0)) ?v1) ?v4) (f62 (f63 (f64 f65 ?v5) ?v_0) (f74 (f75 f76 ?v1) ?v2))) f1)))))
(assert (forall ((?v0 S6)) (= (= (f67 ?v0) f1) (or (= ?v0 f40) (or (exists ((?v1 S35) (?v2 S23)) (= ?v0 (f54 (f55 f56 ?v1) ?v2))) (or (exists ((?v1 S6) (?v2 S45) (?v3 S23)) (and (= ?v0 (f46 (f68 (f69 f70 ?v2) ?v3) ?v1)) (= (f67 ?v1) f1))) (or (exists ((?v1 S6) (?v2 S6)) (and (= ?v0 (f46 (f47 f48 ?v1) ?v2)) (and (= (f67 ?v1) f1) (= (f67 ?v2) f1)))) (or (exists ((?v1 S6) (?v2 S6) (?v3 S3)) (and (= ?v0 (f46 (f47 (f50 f51 ?v3) ?v1) ?v2)) (and (= (f67 ?v1) f1) (= (f67 ?v2) f1)))) (or (exists ((?v1 S6) (?v2 S3)) (and (= ?v0 (f46 (f52 f53 ?v2) ?v1)) (= (f67 ?v1) f1))) (or (exists ((?v1 S38)) (and (= ?v0 (f60 f61 ?v1)) (not (= (f77 f78 ?v1) f79)))) (exists ((?v1 S38) (?v2 S35) (?v3 S23)) (and (= ?v0 (f54 (f57 (f58 f59 ?v2) ?v1) ?v3)) (= (f67 (f60 f61 ?v1)) f1)))))))))))))
(assert (forall ((?v0 S45) (?v1 S23) (?v2 S6) (?v3 S2) (?v4 S12) (?v5 S2)) (=> (= (f3 (f11 (f12 (f13 (f46 (f68 (f69 f70 ?v0) ?v1) ?v2)) ?v3) ?v4) ?v5) f1) (=> (forall ((?v6 S2)) (let ((?v_0 (f72 f73 ?v0))) (=> (= ?v5 (f62 (f63 (f64 f65 ?v6) ?v_0) (f74 (f75 f76 ?v3) ?v0))) (=> (= (f3 (f11 (f12 (f13 ?v2) (f62 (f63 (f64 f65 ?v3) ?v_0) (f66 ?v1 ?v3))) ?v4) ?v6) f1) false)))) false))))
(assert (forall ((?v0 S3) (?v1 S2) (?v2 S6) (?v3 S2) (?v4 S2)) (let ((?v_0 (f71 (f46 (f52 f53 ?v0) ?v2)))) (=> (= (f3 ?v0 ?v1) f1) (=> (= (f3 (f4 (f71 ?v2) ?v1) ?v3) f1) (=> (= (f3 (f4 ?v_0 ?v3) ?v4) f1) (= (f3 (f4 ?v_0 ?v1) ?v4) f1)))))))
(assert (forall ((?v0 S3) (?v1 S2) (?v2 S6)) (=> (not (= (f3 ?v0 ?v1) f1)) (= (f3 (f4 (f71 (f46 (f52 f53 ?v0) ?v2)) ?v1) ?v1) f1))))
(assert (forall ((?v0 S3) (?v1 S6) (?v2 S6) (?v3 S2) (?v4 S2)) (let ((?v_0 (= (f3 ?v0 ?v3) f1))) (=> (= (f3 (f4 (f71 (f46 (f47 (f50 f51 ?v0) ?v1) ?v2)) ?v3) ?v4) f1) (=> (=> ?v_0 (=> (= (f3 (f4 (f71 ?v1) ?v3) ?v4) f1) false)) (=> (=> (not ?v_0) (=> (= (f3 (f4 (f71 ?v2) ?v3) ?v4) f1) false)) false))))))
(assert (forall ((?v0 S3) (?v1 S2) (?v2 S6) (?v3 S2) (?v4 S6)) (=> (= (f3 ?v0 ?v1) f1) (=> (= (f3 (f4 (f71 ?v2) ?v1) ?v3) f1) (= (f3 (f4 (f71 (f46 (f47 (f50 f51 ?v0) ?v2) ?v4)) ?v1) ?v3) f1)))))
(assert (forall ((?v0 S3) (?v1 S2) (?v2 S6) (?v3 S2) (?v4 S6)) (=> (not (= (f3 ?v0 ?v1) f1)) (=> (= (f3 (f4 (f71 ?v2) ?v1) ?v3) f1) (= (f3 (f4 (f71 (f46 (f47 (f50 f51 ?v0) ?v4) ?v2)) ?v1) ?v3) f1)))))
(assert (forall ((?v0 S6) (?v1 S2) (?v2 S2) (?v3 S6) (?v4 S2)) (=> (= (f3 (f4 (f71 ?v0) ?v1) ?v2) f1) (=> (= (f3 (f4 (f71 ?v3) ?v2) ?v4) f1) (= (f3 (f4 (f71 (f46 (f47 f48 ?v0) ?v3)) ?v1) ?v4) f1)))))
(assert (forall ((?v0 S2)) (= (f3 (f4 (f71 f40) ?v0) ?v0) f1)))
(assert (forall ((?v0 S2) (?v1 S2)) (=> (= (f3 (f4 (f71 f40) ?v0) ?v1) f1) (=> (=> (= ?v1 ?v0) false) false))))
(assert (forall ((?v0 S6) (?v1 S2) (?v2 S45) (?v3 S23) (?v4 S2)) (let ((?v_0 (f72 f73 ?v2))) (=> (= (f3 (f4 (f71 ?v0) (f62 (f63 (f64 f65 ?v1) ?v_0) (f66 ?v3 ?v1))) ?v4) f1) (= (f3 (f4 (f71 (f46 (f68 (f69 f70 ?v2) ?v3) ?v0)) ?v1) (f62 (f63 (f64 f65 ?v4) ?v_0) (f74 (f75 f76 ?v1) ?v2))) f1)))))
(assert (forall ((?v0 S45) (?v1 S45)) (= (= (f72 f73 ?v0) (f72 f73 ?v1)) (= ?v0 ?v1))))
(assert (forall ((?v0 S6) (?v1 S2) (?v2 S2) (?v3 S2)) (let ((?v_0 (f4 (f71 ?v0) ?v1))) (=> (= (f3 ?v_0 ?v2) f1) (=> (= (f3 ?v_0 ?v3) f1) (= ?v3 ?v2))))))
(assert (forall ((?v0 S38)) (=> (not (= (f77 f78 ?v0) f79)) (= (f67 (f60 f61 ?v0)) f1))))
(assert (forall ((?v0 S6) (?v1 S2) (?v2 S12) (?v3 S2)) (=> (= (f3 (f11 (f12 (f13 ?v0) ?v1) ?v2) ?v3) f1) (= (f3 (f4 (f71 ?v0) ?v1) ?v3) f1))))
(assert (forall ((?v0 S6) (?v1 S2) (?v2 S2)) (= (= (f3 (f4 (f71 ?v0) ?v1) ?v2) f1) (exists ((?v3 S12)) (= (f3 (f11 (f12 (f13 ?v0) ?v1) ?v3) ?v2) f1)))))
(assert (forall ((?v0 S45) (?v1 S23) (?v2 S6) (?v3 S2) (?v4 S2)) (=> (= (f3 (f4 (f71 (f46 (f68 (f69 f70 ?v0) ?v1) ?v2)) ?v3) ?v4) f1) (=> (forall ((?v5 S2)) (let ((?v_0 (f72 f73 ?v0))) (=> (= ?v4 (f62 (f63 (f64 f65 ?v5) ?v_0) (f74 (f75 f76 ?v3) ?v0))) (=> (= (f3 (f4 (f71 ?v2) (f62 (f63 (f64 f65 ?v3) ?v_0) (f66 ?v1 ?v3))) ?v5) f1) false)))) false))))
(assert (forall ((?v0 S6) (?v1 S6) (?v2 S2) (?v3 S2)) (=> (= (f3 (f4 (f71 (f46 (f47 f48 ?v0) ?v1)) ?v2) ?v3) f1) (=> (forall ((?v4 S2)) (=> (= (f3 (f4 (f71 ?v0) ?v2) ?v4) f1) (=> (= (f3 (f4 (f71 ?v1) ?v4) ?v3) f1) false))) false))))
(assert (forall ((?v0 S6)) (= (f80 f81 ?v0) (f25 (f26 (f27 f28 f5) ?v0) (f71 ?v0)))))
(assert (forall ((?v0 S45)) (= (f82 f83 (f72 f73 ?v0)) f34)))
(assert (forall ((?v0 S3) (?v1 S6) (?v2 S2) (?v3 S2)) (=> (= (f3 (f4 (f71 (f46 (f52 f53 ?v0) ?v1)) ?v2) ?v3) f1) (=> (=> (= ?v3 ?v2) (=> (not (= (f3 ?v0 ?v2) f1)) false)) (=> (forall ((?v4 S2)) (=> (= (f3 ?v0 ?v2) f1) (=> (= (f3 (f4 (f71 ?v1) ?v2) ?v4) f1) (=> (= (f3 (f4 (f71 (f46 (f52 f53 ?v0) ?v1)) ?v4) ?v3) f1) false)))) false)))))
(assert (forall ((?v0 S6) (?v1 S2) (?v2 S2)) (=> (= (f3 (f4 (f71 ?v0) ?v1) ?v2) f1) (exists ((?v3 S12)) (= (f3 (f11 (f12 (f13 ?v0) ?v1) ?v3) ?v2) f1)))))
(assert (forall ((?v0 S38) (?v1 S2) (?v2 S2)) (=> (= (f3 (f4 (f71 (f84 f85 (f77 f78 ?v0))) ?v1) ?v2) f1) (= (f3 (f4 (f71 (f60 f61 ?v0)) ?v1) ?v2) f1))))
(assert (forall ((?v0 S38) (?v1 S2) (?v2 S2)) (=> (= (f3 (f4 (f71 (f60 f61 ?v0)) ?v1) ?v2) f1) (=> (=> (= (f3 (f4 (f71 (f84 f85 (f77 f78 ?v0))) ?v1) ?v2) f1) false) false))))
(assert (forall ((?v0 S45)) (= (f82 f86 (f72 f73 ?v0)) f34)))
(assert (forall ((?v0 S38) (?v1 S2) (?v2 S12) (?v3 S2)) (=> (= (f3 (f11 (f12 (f13 (f84 f85 (f77 f78 ?v0))) ?v1) ?v2) ?v3) f1) (= (f3 (f11 (f12 (f13 (f60 f61 ?v0)) ?v1) (f87 f88 ?v2)) ?v3) f1))))
(assert (forall ((?v0 S57)) (= (f82 f83 (f89 f90 ?v0)) f34)))
(assert (forall ((?v0 S6) (?v1 S2) (?v2 S12) (?v3 S2)) (let ((?v_0 (f12 (f13 ?v0) ?v1))) (=> (= (f3 (f11 ?v_0 ?v2) ?v3) f1) (= (f3 (f11 ?v_0 (f87 f88 ?v2)) ?v3) f1)))))
(assert (forall ((?v0 S57)) (= (f82 f86 (f89 f90 ?v0)) f34)))
(assert (forall ((?v0 S57) (?v1 S57)) (= (= (f89 f90 ?v0) (f89 f90 ?v1)) (= ?v0 ?v1))))
(assert (forall ((?v0 S57) (?v1 S45)) (not (= (f89 f90 ?v0) (f72 f73 ?v1)))))
(assert (forall ((?v0 S45) (?v1 S57)) (not (= (f72 f73 ?v0) (f89 f90 ?v1)))))
(assert (forall ((?v0 S38) (?v1 S2) (?v2 S12) (?v3 S2)) (=> (= (f3 (f11 (f12 (f13 (f60 f61 ?v0)) ?v1) ?v2) ?v3) f1) (=> (forall ((?v4 S12)) (=> (= ?v2 (f87 f88 ?v4)) (=> (= (f3 (f11 (f12 (f13 (f84 f85 (f77 f78 ?v0))) ?v1) ?v4) ?v3) f1) false))) false))))
(assert (forall ((?v0 S12)) (not (= f34 (f87 f88 ?v0)))))
(assert (forall ((?v0 S12)) (not (= f34 (f87 f88 ?v0)))))
(assert (forall ((?v0 S12)) (not (= ?v0 (f87 f88 ?v0)))))
(assert (forall ((?v0 S12)) (not (= (f87 f88 ?v0) ?v0))))
(assert (forall ((?v0 S12) (?v1 S12)) (= (= (f87 f88 ?v0) (f87 f88 ?v1)) (= ?v0 ?v1))))
(assert (forall ((?v0 S12) (?v1 S12)) (=> (= (f87 f88 ?v0) (f87 f88 ?v1)) (= ?v0 ?v1))))
(assert (forall ((?v0 S12)) (=> (= (f87 f88 ?v0) f34) false)))
(assert (forall ((?v0 S12)) (=> (= f34 (f87 f88 ?v0)) false)))
(assert (forall ((?v0 S12)) (not (= (f87 f88 ?v0) f34))))
(assert (forall ((?v0 S12)) (not (= (f87 f88 ?v0) f34))))
(assert (forall ((?v0 S12)) (=> (not (= ?v0 f34)) (exists ((?v1 S12)) (= ?v0 (f87 f88 ?v1))))))
(assert (forall ((?v0 S59) (?v1 S12)) (=> (= (f91 ?v0 f34) f1) (=> (forall ((?v2 S12)) (=> (= (f91 ?v0 ?v2) f1) (= (f91 ?v0 (f87 f88 ?v2)) f1))) (= (f91 ?v0 ?v1) f1)))))
(assert (forall ((?v0 S59) (?v1 S12)) (=> (= (f91 ?v0 ?v1) f1) (=> (forall ((?v2 S12)) (=> (= (f91 ?v0 (f87 f88 ?v2)) f1) (= (f91 ?v0 ?v2) f1))) (= (f91 ?v0 f34) f1)))))
(assert (forall ((?v0 S12)) (=> (=> (= ?v0 f34) false) (=> (forall ((?v1 S12)) (=> (= ?v0 (f87 f88 ?v1)) false)) false))))
(assert (forall ((?v0 S35)) (=> (forall ((?v1 S57)) (=> (= ?v0 (f89 f90 ?v1)) false)) (=> (forall ((?v1 S45)) (=> (= ?v0 (f72 f73 ?v1)) false)) false))))
(assert (forall ((?v0 S45) (?v1 S23) (?v2 S6)) (= (f44 f49 (f46 (f68 (f69 f70 ?v0) ?v1) ?v2)) (f87 (f92 f93 (f44 f49 ?v2)) (f87 f88 f34)))))
(assert (forall ((?v0 S45) (?v1 S23) (?v2 S6)) (= (f44 f45 (f46 (f68 (f69 f70 ?v0) ?v1) ?v2)) (f87 (f92 f93 (f44 f45 ?v2)) (f87 f88 f34)))))
(assert (forall ((?v0 S12) (?v1 S12)) (= (f87 (f92 f93 (f87 f88 ?v0)) ?v1) (f87 (f92 f93 ?v0) (f87 f88 ?v1)))))
(assert (forall ((?v0 S12) (?v1 S12)) (= (f87 (f92 f93 (f87 f88 ?v0)) ?v1) (f87 f88 (f87 (f92 f93 ?v0) ?v1)))))
(assert (forall ((?v0 S12) (?v1 S12)) (let ((?v_0 (f92 f93 ?v0))) (= (f87 ?v_0 (f87 f88 ?v1)) (f87 f88 (f87 ?v_0 ?v1))))))
(assert (forall ((?v0 S12) (?v1 S12)) (= (f87 (f92 f93 ?v0) ?v1) (f87 (f92 f93 ?v1) ?v0))))
(assert (forall ((?v0 S12) (?v1 S12) (?v2 S12)) (let ((?v_1 (f92 f93 ?v0)) (?v_0 (f92 f93 ?v1))) (= (f87 ?v_1 (f87 ?v_0 ?v2)) (f87 ?v_0 (f87 ?v_1 ?v2))))))
(assert (forall ((?v0 S12) (?v1 S12) (?v2 S12)) (let ((?v_0 (f92 f93 ?v0))) (= (f87 (f92 f93 (f87 ?v_0 ?v1)) ?v2) (f87 ?v_0 (f87 (f92 f93 ?v1) ?v2))))))
(assert (forall ((?v0 S12) (?v1 S12) (?v2 S12)) (let ((?v_0 (f92 f93 ?v0))) (= (= (f87 ?v_0 ?v1) (f87 ?v_0 ?v2)) (= ?v1 ?v2)))))
(assert (forall ((?v0 S12) (?v1 S12) (?v2 S12)) (= (= (f87 (f92 f93 ?v0) ?v1) (f87 (f92 f93 ?v2) ?v1)) (= ?v0 ?v2))))
(assert (forall ((?v0 S12) (?v1 S12)) (=> (= (f87 (f92 f93 ?v0) ?v1) ?v0) (= ?v1 f34))))
(assert (forall ((?v0 S12) (?v1 S12)) (= (= (f87 (f92 f93 ?v0) ?v1) f34) (and (= ?v0 f34) (= ?v1 f34)))))
(assert (forall ((?v0 S12)) (= (f87 (f92 f93 ?v0) f34) ?v0)))
(assert (forall ((?v0 S12)) (= (f87 (f92 f93 f34) ?v0) ?v0)))
(assert (forall ((?v0 S12) (?v1 S12) (?v2 S12)) (let ((?v_0 (f92 f93 ?v0))) (= (f87 (f92 f93 (f87 ?v_0 ?v1)) ?v2) (f87 ?v_0 (f87 (f92 f93 ?v1) ?v2))))))
(assert (forall ((?v0 S29) (?v1 S29) (?v2 S29)) (let ((?v_0 (f95 f96 ?v0))) (= (f94 (f95 f96 (f94 ?v_0 ?v1)) ?v2) (f94 ?v_0 (f94 (f95 f96 ?v1) ?v2))))))
(assert (forall ((?v0 S12) (?v1 S12) (?v2 S12)) (let ((?v_0 (f92 f93 ?v0))) (= (= (f87 ?v_0 ?v1) (f87 ?v_0 ?v2)) (= ?v1 ?v2)))))
(assert (forall ((?v0 S29) (?v1 S29) (?v2 S29)) (let ((?v_0 (f95 f96 ?v0))) (= (= (f94 ?v_0 ?v1) (f94 ?v_0 ?v2)) (= ?v1 ?v2)))))
(assert (forall ((?v0 S12) (?v1 S12) (?v2 S12)) (= (= (f87 (f92 f93 ?v0) ?v1) (f87 (f92 f93 ?v2) ?v1)) (= ?v0 ?v2))))
(assert (forall ((?v0 S29) (?v1 S29) (?v2 S29)) (= (= (f94 (f95 f96 ?v0) ?v1) (f94 (f95 f96 ?v2) ?v1)) (= ?v0 ?v2))))
(assert (forall ((?v0 S12) (?v1 S12) (?v2 S12)) (let ((?v_0 (f92 f93 ?v0))) (=> (= (f87 ?v_0 ?v1) (f87 ?v_0 ?v2)) (= ?v1 ?v2)))))
(assert (forall ((?v0 S29) (?v1 S29) (?v2 S29)) (let ((?v_0 (f95 f96 ?v0))) (=> (= (f94 ?v_0 ?v1) (f94 ?v_0 ?v2)) (= ?v1 ?v2)))))
(assert (forall ((?v0 S12) (?v1 S12) (?v2 S12)) (let ((?v_0 (f92 f93 ?v0))) (=> (= (f87 ?v_0 ?v1) (f87 ?v_0 ?v2)) (= ?v1 ?v2)))))
(assert (forall ((?v0 S29) (?v1 S29) (?v2 S29)) (let ((?v_0 (f95 f96 ?v0))) (=> (= (f94 ?v_0 ?v1) (f94 ?v_0 ?v2)) (= ?v1 ?v2)))))
(assert (forall ((?v0 S12) (?v1 S12) (?v2 S12)) (=> (= (f87 (f92 f93 ?v0) ?v1) (f87 (f92 f93 ?v2) ?v1)) (= ?v0 ?v2))))
(assert (forall ((?v0 S29) (?v1 S29) (?v2 S29)) (=> (= (f94 (f95 f96 ?v0) ?v1) (f94 (f95 f96 ?v2) ?v1)) (= ?v0 ?v2))))
(assert (forall ((?v0 S12)) (= (f87 (f92 f93 f34) ?v0) ?v0)))
(assert (forall ((?v0 S29)) (= (f94 (f95 f96 f42) ?v0) ?v0)))
(assert (forall ((?v0 S12)) (= (f87 (f92 f93 f34) ?v0) ?v0)))
(assert (forall ((?v0 S29)) (= (f94 (f95 f96 f42) ?v0) ?v0)))
(assert (forall ((?v0 S29)) (= (= f42 (f94 (f95 f96 ?v0) ?v0)) (= ?v0 f42))))
(assert (forall ((?v0 S12)) (= (f87 (f92 f93 ?v0) f34) ?v0)))
(assert (forall ((?v0 S29)) (= (f94 (f95 f96 ?v0) f42) ?v0)))
(assert (forall ((?v0 S12)) (= (f87 (f92 f93 ?v0) f34) ?v0)))
(assert (forall ((?v0 S29)) (= (f94 (f95 f96 ?v0) f42) ?v0)))
(assert (forall ((?v0 S12) (?v1 S12)) (let ((?v_0 (f87 f88 f34))) (= (= (f87 (f92 f93 ?v0) ?v1) ?v_0) (or (and (= ?v0 ?v_0) (= ?v1 f34)) (and (= ?v0 f34) (= ?v1 ?v_0)))))))
(assert (forall ((?v0 S12) (?v1 S12)) (let ((?v_0 (f87 f88 f34))) (= (= ?v_0 (f87 (f92 f93 ?v0) ?v1)) (or (and (= ?v0 ?v_0) (= ?v1 f34)) (and (= ?v0 f34) (= ?v1 ?v_0)))))))
(assert (forall ((?v0 S3) (?v1 S6)) (= (f44 f49 (f46 (f52 f53 ?v0) ?v1)) (f87 (f92 f93 (f44 f49 ?v1)) (f87 f88 f34)))))
(assert (forall ((?v0 S3) (?v1 S6)) (= (f44 f45 (f46 (f52 f53 ?v0) ?v1)) (f87 (f92 f93 (f44 f45 ?v1)) (f87 f88 f34)))))
(assert (forall ((?v0 S3) (?v1 S6) (?v2 S6)) (= (f44 f49 (f46 (f47 (f50 f51 ?v0) ?v1) ?v2)) (f87 (f92 f93 (f87 (f92 f93 (f44 f49 ?v1)) (f44 f49 ?v2))) (f87 f88 f34)))))
(assert (forall ((?v0 S3) (?v1 S6) (?v2 S6)) (= (f44 f45 (f46 (f47 (f50 f51 ?v0) ?v1) ?v2)) (f87 (f92 f93 (f87 (f92 f93 (f44 f45 ?v1)) (f44 f45 ?v2))) (f87 f88 f34)))))
(assert (forall ((?v0 S6) (?v1 S6)) (= (f44 f49 (f46 (f47 f48 ?v0) ?v1)) (f87 (f92 f93 (f87 (f92 f93 (f44 f49 ?v0)) (f44 f49 ?v1))) (f87 f88 f34)))))
(assert (forall ((?v0 S6) (?v1 S6)) (= (f44 f45 (f46 (f47 f48 ?v0) ?v1)) (f87 (f92 f93 (f87 (f92 f93 (f44 f45 ?v0)) (f44 f45 ?v1))) (f87 f88 f34)))))
(assert (forall ((?v0 S12)) (= (f87 (f92 f93 f34) ?v0) ?v0)))
(assert (forall ((?v0 S29)) (= (f94 (f95 f96 f42) ?v0) ?v0)))
(assert (forall ((?v0 S12)) (= (f87 (f92 f93 ?v0) f34) ?v0)))
(assert (forall ((?v0 S29)) (= (f94 (f95 f96 ?v0) f42) ?v0)))
(assert (forall ((?v0 S12) (?v1 S12)) (= (f87 (f92 f93 ?v0) ?v1) (f87 (f92 f93 ?v1) ?v0))))
(assert (forall ((?v0 S29) (?v1 S29)) (= (f94 (f95 f96 ?v0) ?v1) (f94 (f95 f96 ?v1) ?v0))))
(assert (forall ((?v0 S12) (?v1 S12) (?v2 S12)) (let ((?v_1 (f92 f93 ?v0)) (?v_0 (f92 f93 ?v1))) (= (f87 ?v_1 (f87 ?v_0 ?v2)) (f87 ?v_0 (f87 ?v_1 ?v2))))))
(assert (forall ((?v0 S29) (?v1 S29) (?v2 S29)) (let ((?v_1 (f95 f96 ?v0)) (?v_0 (f95 f96 ?v1))) (= (f94 ?v_1 (f94 ?v_0 ?v2)) (f94 ?v_0 (f94 ?v_1 ?v2))))))
(assert (forall ((?v0 S12) (?v1 S12) (?v2 S12)) (let ((?v_0 (f92 f93 ?v0))) (= (f87 ?v_0 (f87 (f92 f93 ?v1) ?v2)) (f87 (f92 f93 (f87 ?v_0 ?v1)) ?v2)))))
(assert (forall ((?v0 S29) (?v1 S29) (?v2 S29)) (let ((?v_0 (f95 f96 ?v0))) (= (f94 ?v_0 (f94 (f95 f96 ?v1) ?v2)) (f94 (f95 f96 (f94 ?v_0 ?v1)) ?v2)))))
(assert (forall ((?v0 S12) (?v1 S12) (?v2 S12)) (let ((?v_0 (f92 f93 ?v0))) (= (f87 (f92 f93 (f87 ?v_0 ?v1)) ?v2) (f87 ?v_0 (f87 (f92 f93 ?v1) ?v2))))))
(assert (forall ((?v0 S29) (?v1 S29) (?v2 S29)) (let ((?v_0 (f95 f96 ?v0))) (= (f94 (f95 f96 (f94 ?v_0 ?v1)) ?v2) (f94 ?v_0 (f94 (f95 f96 ?v1) ?v2))))))
(assert (forall ((?v0 S12) (?v1 S12) (?v2 S12)) (let ((?v_0 (f92 f93 ?v0))) (= (f87 (f92 f93 (f87 ?v_0 ?v1)) ?v2) (f87 (f92 f93 (f87 ?v_0 ?v2)) ?v1)))))
(assert (forall ((?v0 S29) (?v1 S29) (?v2 S29)) (let ((?v_0 (f95 f96 ?v0))) (= (f94 (f95 f96 (f94 ?v_0 ?v1)) ?v2) (f94 (f95 f96 (f94 ?v_0 ?v2)) ?v1)))))
(assert (forall ((?v0 S12) (?v1 S12) (?v2 S12) (?v3 S12)) (let ((?v_0 (f92 f93 ?v0))) (= (f87 (f92 f93 (f87 ?v_0 ?v1)) (f87 (f92 f93 ?v2) ?v3)) (f87 (f92 f93 (f87 ?v_0 ?v2)) (f87 (f92 f93 ?v1) ?v3))))))
(assert (forall ((?v0 S29) (?v1 S29) (?v2 S29) (?v3 S29)) (let ((?v_0 (f95 f96 ?v0))) (= (f94 (f95 f96 (f94 ?v_0 ?v1)) (f94 (f95 f96 ?v2) ?v3)) (f94 (f95 f96 (f94 ?v_0 ?v2)) (f94 (f95 f96 ?v1) ?v3))))))
(assert (forall ((?v0 S12) (?v1 S12)) (= (= ?v0 (f87 (f92 f93 ?v0) ?v1)) (= ?v1 f34))))
(assert (forall ((?v0 S29) (?v1 S29)) (= (= ?v0 (f94 (f95 f96 ?v0) ?v1)) (= ?v1 f42))))
(assert (forall ((?v0 S29)) (= (= (f94 (f95 f96 ?v0) ?v0) f42) (= ?v0 f42))))
(assert (forall ((?v0 S12)) (= (f87 f97 (f87 f88 ?v0)) (f87 (f92 f93 (f87 f97 ?v0)) (f87 f88 f34)))))
(assert (= (f87 f97 f34) f34))
(assert (forall ((?v0 S30)) (= (f100 (f98 f99 ?v0) f79) f34)))
(assert (forall ((?v0 S12)) (= (f87 f101 (f87 f88 ?v0)) (f87 (f92 f93 (f87 f101 ?v0)) (f87 f88 f34)))))
(assert (forall ((?v0 S12)) (= (f87 f101 ?v0) ?v0)))
(assert (= (f87 f101 f34) f34))
(assert (= (f100 f102 f79) f34))
(assert (= (f103 f104 f2) f34))
(assert (= (f103 f104 f1) f34))
(assert (forall ((?v0 S30) (?v1 S6)) (= (f100 (f98 f99 ?v0) (f105 f106 ?v1)) (f87 (f92 f93 (f44 ?v0 ?v1)) (f87 f88 f34)))))
(assert (forall ((?v0 S38) (?v1 S2) (?v2 S23) (?v3 S2) (?v4 S35)) (=> (= (f3 (f4 (f71 (f60 f61 ?v0)) (f62 (f63 (f64 f65 (f107 (f108 f109 ?v1) f110)) (f72 f73 f111)) (f66 ?v2 ?v1))) ?v3) f1) (= (f3 (f4 (f71 (f54 (f57 (f58 f59 ?v4) ?v0) ?v2)) ?v1) (f62 (f63 (f64 f65 (f107 (f108 f109 ?v3) (f75 f76 ?v1))) ?v4) (f74 (f75 f76 ?v3) f112))) f1))))
(assert (forall ((?v0 S38) (?v1 S2) (?v2 S23) (?v3 S12) (?v4 S2) (?v5 S35)) (=> (= (f3 (f11 (f12 (f13 (f60 f61 ?v0)) (f62 (f63 (f64 f65 (f107 (f108 f109 ?v1) f110)) (f72 f73 f111)) (f66 ?v2 ?v1))) ?v3) ?v4) f1) (= (f3 (f11 (f12 (f13 (f54 (f57 (f58 f59 ?v5) ?v0) ?v2)) ?v1) ?v3) (f62 (f63 (f64 f65 (f107 (f108 f109 ?v4) (f75 f76 ?v1))) ?v5) (f74 (f75 f76 ?v4) f112))) f1))))
(assert (forall ((?v0 S6)) (= (f100 f102 (f105 f106 ?v0)) f34)))
(assert (forall ((?v0 S35) (?v1 S38) (?v2 S23) (?v3 S2) (?v4 S2)) (=> (= (f3 (f4 (f71 (f54 (f57 (f58 f59 ?v0) ?v1) ?v2)) ?v3) ?v4) f1) (=> (forall ((?v5 S2)) (=> (= ?v4 (f62 (f63 (f64 f65 (f107 (f108 f109 ?v5) (f75 f76 ?v3))) ?v0) (f74 (f75 f76 ?v5) f112))) (=> (= (f3 (f4 (f71 (f60 f61 ?v1)) (f62 (f63 (f64 f65 (f107 (f108 f109 ?v3) f110)) (f72 f73 f111)) (f66 ?v2 ?v3))) ?v5) f1) false))) false))))
(assert (forall ((?v0 S35) (?v1 S38) (?v2 S23) (?v3 S2) (?v4 S12) (?v5 S2)) (=> (= (f3 (f11 (f12 (f13 (f54 (f57 (f58 f59 ?v0) ?v1) ?v2)) ?v3) ?v4) ?v5) f1) (=> (forall ((?v6 S2)) (=> (= ?v5 (f62 (f63 (f64 f65 (f107 (f108 f109 ?v6) (f75 f76 ?v3))) ?v0) (f74 (f75 f76 ?v6) f112))) (=> (= (f3 (f11 (f12 (f13 (f60 f61 ?v1)) (f62 (f63 (f64 f65 (f107 (f108 f109 ?v3) f110)) (f72 f73 f111)) (f66 ?v2 ?v3))) ?v4) ?v6) f1) false))) false))))
(assert (forall ((?v0 S38)) (=> (= (f67 (f60 f61 ?v0)) f1) (=> (forall ((?v1 S6)) (=> (= (f77 f78 ?v0) (f105 f106 ?v1)) false)) false))))
(assert (forall ((?v0 S38) (?v1 S6)) (=> (= f113 f1) (=> (= (f77 f78 ?v0) (f105 f106 ?v1)) (= (f67 ?v1) f1)))))
(assert (forall ((?v0 S6)) (= (f84 f85 (f105 f106 ?v0)) ?v0)))
(assert (forall ((?v0 S6)) (not (= f79 (f105 f106 ?v0)))))
(assert (forall ((?v0 S6) (?v1 S6)) (= (= (f105 f106 ?v0) (f105 f106 ?v1)) (= ?v0 ?v1))))
(assert (forall ((?v0 S52)) (= (not (= ?v0 f79)) (exists ((?v1 S6)) (= ?v0 (f105 f106 ?v1))))))
(assert (forall ((?v0 S52)) (= (forall ((?v1 S6)) (not (= ?v0 (f105 f106 ?v1)))) (= ?v0 f79))))
(assert (forall ((?v0 S6)) (not (= (f105 f106 ?v0) f79))))
(assert (forall ((?v0 S52)) (=> (=> (= ?v0 f79) false) (=> (forall ((?v1 S6)) (=> (= ?v0 (f105 f106 ?v1)) false)) false))))
(check-sat)
(exit)
